instances/knapsack/discrete_knapsack_uncertainty/knapsack_100_3.lp
\ Model knapsack_100_3
\ LP format - for model browsing. Use MPS format to capture full model detail.
\ Signature: 0x98b4e0718ea0846a
Minimize
  - 85 x[0] - 13 x[1] - 83 x[2] - 91 x[3] - 4 x[4] - 4 x[5] - 48 x[6]
   - 34 x[7] - 69 x[8] - 97 x[9] - 70 x[10] - 54 x[11] - 78 x[12]
   - 77 x[13] - 42 x[14] - 99 x[15] - 65 x[16] - x[17] - 85 x[18]
   - 76 x[19] - 16 x[20] - 6 x[21] - 59 x[22] - 27 x[23] - 8 x[24]
   - 85 x[25] - 23 x[26] - 2 x[27] - 17 x[28] - 55 x[29] - 48 x[30]
   - 59 x[31] - 87 x[32] - 74 x[33] - 90 x[34] - 48 x[35] - 68 x[36]
   - 86 x[37] - 97 x[38] - 2 x[39] - 43 x[40] - 48 x[41] - 72 x[42]
   - 46 x[43] - 29 x[44] - 22 x[45] - 55 x[46] - 7 x[47] - 67 x[48]
   - 60 x[49] - 66 x[50] - 61 x[51] - 90 x[52] - 72 x[53] - 83 x[54]
   - 45 x[55] - 25 x[56] - 7 x[57] - 99 x[58] - 90 x[59] - 87 x[60]
   - 29 x[61] - 76 x[62] - 72 x[63] - 25 x[64] - 88 x[65] - 16 x[66]
   - 4 x[67] - 7 x[68] - 28 x[69] - 12 x[70] - 62 x[71] - 20 x[72]
   - 64 x[73] - 33 x[74] - 77 x[75] - 81 x[76] - 12 x[77] - 79 x[78]
   - 38 x[79] - 10 x[80] - 81 x[81] - 88 x[82] - 57 x[83] - 56 x[84]
   - 79 x[85] - 81 x[86] - 94 x[87] - 71 x[88] - 13 x[89] - 69 x[90]
   - 72 x[91] - 64 x[92] - 99 x[93] - 31 x[94] - 49 x[95] - 80 x[96]
   - 39 x[97] - 23 x[98] - 11 x[99]
Subject To
 primal_upper: 64 x[0] + 49 x[1] + 3 x[2] + 68 x[3] + x[4] + 58 x[5]
   + 70 x[6] + 48 x[7] + 70 x[8] + 99 x[9] + 20 x[10] + 16 x[11] + 29 x[12]
   + 33 x[13] + 53 x[14] + 17 x[15] + 30 x[16] + 85 x[17] + 94 x[18]
   + 11 x[19] + 50 x[20] + 40 x[21] + 25 x[22] + 71 x[23] + 37 x[24]
   + 53 x[25] + 79 x[26] + 12 x[27] + 70 x[28] + 44 x[29] + 30 x[30]
   + 72 x[31] + 92 x[32] + 42 x[33] + 41 x[34] + 10 x[35] + 17 x[36]
   + 33 x[37] + 53 x[38] + 55 x[39] + 16 x[40] + 42 x[41] + 35 x[42]
   + 70 x[43] + 100 x[44] + 43 x[45] + 2 x[46] + 42 x[47] + 68 x[48]
   + 9 x[49] + 51 x[50] + 5 x[51] + 50 x[52] + 29 x[53] + 57 x[54]
   + 76 x[55] + 90 x[56] + 83 x[57] + 77 x[58] + 59 x[59] + 37 x[60]
   + 7 x[61] + 68 x[62] + 55 x[63] + 68 x[64] + 81 x[65] + 93 x[66]
   + 15 x[67] + 93 x[68] + 2 x[69] + 14 x[70] + 70 x[71] + 95 x[72]
   + 4 x[73] + 72 x[74] + 25 x[75] + 11 x[76] + 36 x[77] + 57 x[78]
   + 11 x[79] + 74 x[80] + 34 x[81] + 79 x[82] + 74 x[83] + 82 x[84]
   + 78 x[85] + 4 x[86] + 77 x[87] + 83 x[88] + 12 x[89] + 25 x[90]
   + 49 x[91] + 85 x[92] + 56 x[93] + 13 x[94] + 70 x[95] + 18 x[96]
   + 33 x[97] + 97 x[98] + 85 x[99] + 6.4 r[0] + 4.9 r[1] + 0.3 r[2]
   + 6.8 r[3] + 0.1 r[4] + 5.8 r[5] + 7 r[6] + 4.8 r[7] + 7 r[8] + 9.9 r[9]
   + 2 r[10] + 1.6 r[11] + 2.9 r[12] + 3.3 r[13] + 5.3 r[14] + 1.7 r[15]
   + 3 r[16] + 8.5 r[17] + 9.4 r[18] + 1.1 r[19] + 5 r[20] + 4 r[21]
   + 2.5 r[22] + 7.1 r[23] + 3.7 r[24] + 5.3 r[25] + 7.9 r[26] + 1.2 r[27]
   + 7 r[28] + 4.4 r[29] + 3 r[30] + 7.2 r[31] + 9.2 r[32] + 4.2 r[33]
   + 4.1 r[34] + r[35] + 1.7 r[36] + 3.3 r[37] + 5.3 r[38] + 5.5 r[39]
   + 1.6 r[40] + 4.2 r[41] + 3.5 r[42] + 7 r[43] + 10 r[44] + 4.3 r[45]
   + 0.2 r[46] + 4.2 r[47] + 6.8 r[48] + 0.9 r[49] + 5.1 r[50] + 0.5 r[51]
   + 5 r[52] + 2.9 r[53] + 5.7 r[54] + 7.6 r[55] + 9 r[56] + 8.3 r[57]
   + 7.7 r[58] + 5.9 r[59] + 3.7 r[60] + 0.7 r[61] + 6.8 r[62] + 5.5 r[63]
   + 6.8 r[64] + 8.1 r[65] + 9.3 r[66] + 1.5 r[67] + 9.3 r[68] + 0.2 r[69]
   + 1.4 r[70] + 7 r[71] + 9.5 r[72] + 0.4 r[73] + 7.2 r[74] + 2.5 r[75]
   + 1.1 r[76] + 3.6 r[77] + 5.7 r[78] + 1.1 r[79] + 7.4 r[80] + 3.4 r[81]
   + 7.9 r[82] + 7.4 r[83] + 8.2 r[84] + 7.8 r[85] + 0.4 r[86] + 7.7 r[87]
   + 8.3 r[88] + 1.2 r[89] + 2.5 r[90] + 4.9 r[91] + 8.5 r[92] + 5.6 r[93]
   + 1.3 r[94] + 7 r[95] + 1.8 r[96] + 3.3 r[97] + 9.7 r[98] + 8.5 r[99]
   <= 465
 primal_lower: 0.7020667591579234 x[0] + 0.6777327615111921 x[1]
   + 2.063711887196508 x[2] + 0.2873977788137108 x[3]
   + 0.8011264120019208 x[4] + 3.308654084873369 x[5]
   + 1.876303783560508 x[6] + 3.974700132011272 x[7]
   + 1.697218250356501 x[8] + 3.73641541901442 x[9]
   + 3.989387694462313 x[10] + 2.317236575505508 x[11]
   + 2.826862056261715 x[12] + 0.7125897963609777 x[13]
   + 1.176242512507746 x[14] + 4.074688997269024 x[15]
   + 1.006049464291884 x[16] + 2.450798607386603 x[17]
   + 4.388877056336984 x[18] + 1.532166909068589 x[19]
   + 3.101456277920242 x[20] + 2.300192502785873 x[21]
   + 2.568089206555666 x[22] + 0.5965009139721259 x[23]
   + 0.3964908229582585 x[24] + 3.273664666845454 x[25]
   + 2.271071670348293 x[26] + 0.0819265419145267 x[27]
   + 3.208339055173924 x[28] + 3.888101772820152 x[29]
   + 3.276768958562008 x[30] + 4.40669121926672 x[31]
   + 0.5600762533482816 x[32] + 3.123163349127607 x[33]
   + 1.803292774219768 x[34] + 2.686382456679666 x[35]
   + 2.912581391421385 x[36] + 0.9471292798443042 x[37]
   + 2.354549047890742 x[38] + 3.996387217300435 x[39]
   + 4.408437940200067 x[40] + 0.2458820557406396 x[41]
   + 2.682460297674547 x[42] + 2.280214794841868 x[43]
   + 1.168252027684392 x[44] + 0.3102296490436686 x[45]
   + 1.272167753469572 x[46] + 3.327094467193922 x[47]
   + 2.479972715217795 x[48] + 0.8753233002220849 x[49]
   + 0.9611181082230427 x[50] + 0.600758267802781 x[51]
   + 1.430005330341723 x[52] + 3.695716529493385 x[53]
   + 3.473816941491683 x[54] + 3.035599625143512 x[55]
   + 0.7690333136245243 x[56] + 3.054454232577521 x[57]
   + 3.652757489016397 x[58] + 1.347694447831961 x[59]
   + 0.4990610852764962 x[60] + 1.309408580959532 x[61]
   + 1.13365304489907 x[62] + 2.054715593032341 x[63]
   + 3.823950488704527 x[64] + 1.305271455755772 x[65]
   + 1.538000568371442 x[66] + 1.727966524768492 x[67]
   + 1.383436425761031 x[68] + 3.356916170291151 x[69]
   + 1.600124808943479 x[70] + 3.313700479539167 x[71]
   + 1.806281709494364 x[72] + 4.332345151732397 x[73]
   + 2.372158011963427 x[74] + 3.054245953231871 x[75]
   + 1.573363582192828 x[76] + 3.567279613444861 x[77]
   + 0.0121199161863948 x[78] + 2.776075480572455 x[79]
   + 3.335081193763224 x[80] + 1.64190179338953 x[81]
   + 3.635886731779981 x[82] + 2.659391149906527 x[83]
   + 0.8002711433380297 x[84] + 0.7256810382123186 x[85]
   + 1.188725170149652 x[86] + 1.826991337463586 x[87]
   + 1.496175590824762 x[88] + 0.315517885195149 x[89]
   + 1.075345103583519 x[90] + 3.186425166052691 x[91]
   + 2.089507721709035 x[92] + 1.517984066013368 x[93]
   + 0.6940946977332065 x[94] + 2.082149135388076 x[95]
   + 2.956854553643916 x[96] + 3.455936250578673 x[97]
   + 3.859902454535664 x[98] + 2.923413946580731 x[99] + 48 u[0] + 92 u[1]
   + 42 u[2] + 3 u[3] + 72 u[4] + 82 u[5] + 69 u[6] + 64 u[7] + 81 u[8]
   + 10 u[9] + 8 u[10] + 95 u[11] + 28 u[12] + 60 u[13] + 25 u[14]
   + 25 u[15] + 41 u[16] + 20 u[17] + 9 u[18] + 54 u[19] + 13 u[20]
   + 28 u[21] + 16 u[22] + 75 u[23] + 85 u[24] + 64 u[25] + 30 u[26]
   + 12 u[27] + 90 u[28] + 75 u[29] + 34 u[30] + 8 u[31] + 28 u[32]
   + 21 u[33] + 72 u[34] + 45 u[35] + 44 u[36] + 17 u[37] + 48 u[38]
   + 43 u[39] + 27 u[40] + 2 u[41] + 58 u[42] + 26 u[43] + 7 u[44]
   + 19 u[45] + 82 u[46] + 6 u[47] + 79 u[48] + 96 u[49] + 79 u[50]
   + 52 u[51] + 41 u[52] + 84 u[53] + 61 u[54] + 32 u[55] + 29 u[56]
   + 95 u[57] + 76 u[58] + 18 u[59] + 89 u[60] + 7 u[61] + 68 u[62]
   + 51 u[63] + 28 u[64] + 48 u[65] + 85 u[66] + 95 u[67] + 72 u[68]
   + 98 u[69] + 42 u[70] + 62 u[71] + 2 u[72] + 11 u[73] + 20 u[74]
   + 53 u[75] + 47 u[76] + 75 u[77] + 89 u[78] + 27 u[79] + 86 u[80]
   + 2 u[81] + 75 u[82] + 10 u[83] + 26 u[84] + 54 u[85] + 76 u[86]
   + 36 u[87] + 22 u[88] + 63 u[89] + 85 u[90] + 21 u[91] + 9 u[92]
   + 4 u[93] + 24 u[94] + 29 u[95] + 85 u[96] + 17 u[97] + 68 u[98]
   + 32 u[99] <= 40610
 mccormick1[0]: - u[0] + r[0] <= 0
 mccormick1[1]: - u[1] + r[1] <= 0
 mccormick1[2]: - u[2] + r[2] <= 0
 mccormick1[3]: - u[3] + r[3] <= 0
 mccormick1[4]: - u[4] + r[4] <= 0
 mccormick1[5]: - u[5] + r[5] <= 0
 mccormick1[6]: - u[6] + r[6] <= 0
 mccormick1[7]: - u[7] + r[7] <= 0
 mccormick1[8]: - u[8] + r[8] <= 0
 mccormick1[9]: - u[9] + r[9] <= 0
 mccormick1[10]: - u[10] + r[10] <= 0
 mccormick1[11]: - u[11] + r[11] <= 0
 mccormick1[12]: - u[12] + r[12] <= 0
 mccormick1[13]: - u[13] + r[13] <= 0
 mccormick1[14]: - u[14] + r[14] <= 0
 mccormick1[15]: - u[15] + r[15] <= 0
 mccormick1[16]: - u[16] + r[16] <= 0
 mccormick1[17]: - u[17] + r[17] <= 0
 mccormick1[18]: - u[18] + r[18] <= 0
 mccormick1[19]: - u[19] + r[19] <= 0
 mccormick1[20]: - u[20] + r[20] <= 0
 mccormick1[21]: - u[21] + r[21] <= 0
 mccormick1[22]: - u[22] + r[22] <= 0
 mccormick1[23]: - u[23] + r[23] <= 0
 mccormick1[24]: - u[24] + r[24] <= 0
 mccormick1[25]: - u[25] + r[25] <= 0
 mccormick1[26]: - u[26] + r[26] <= 0
 mccormick1[27]: - u[27] + r[27] <= 0
 mccormick1[28]: - u[28] + r[28] <= 0
 mccormick1[29]: - u[29] + r[29] <= 0
 mccormick1[30]: - u[30] + r[30] <= 0
 mccormick1[31]: - u[31] + r[31] <= 0
 mccormick1[32]: - u[32] + r[32] <= 0
 mccormick1[33]: - u[33] + r[33] <= 0
 mccormick1[34]: - u[34] + r[34] <= 0
 mccormick1[35]: - u[35] + r[35] <= 0
 mccormick1[36]: - u[36] + r[36] <= 0
 mccormick1[37]: - u[37] + r[37] <= 0
 mccormick1[38]: - u[38] + r[38] <= 0
 mccormick1[39]: - u[39] + r[39] <= 0
 mccormick1[40]: - u[40] + r[40] <= 0
 mccormick1[41]: - u[41] + r[41] <= 0
 mccormick1[42]: - u[42] + r[42] <= 0
 mccormick1[43]: - u[43] + r[43] <= 0
 mccormick1[44]: - u[44] + r[44] <= 0
 mccormick1[45]: - u[45] + r[45] <= 0
 mccormick1[46]: - u[46] + r[46] <= 0
 mccormick1[47]: - u[47] + r[47] <= 0
 mccormick1[48]: - u[48] + r[48] <= 0
 mccormick1[49]: - u[49] + r[49] <= 0
 mccormick1[50]: - u[50] + r[50] <= 0
 mccormick1[51]: - u[51] + r[51] <= 0
 mccormick1[52]: - u[52] + r[52] <= 0
 mccormick1[53]: - u[53] + r[53] <= 0
 mccormick1[54]: - u[54] + r[54] <= 0
 mccormick1[55]: - u[55] + r[55] <= 0
 mccormick1[56]: - u[56] + r[56] <= 0
 mccormick1[57]: - u[57] + r[57] <= 0
 mccormick1[58]: - u[58] + r[58] <= 0
 mccormick1[59]: - u[59] + r[59] <= 0
 mccormick1[60]: - u[60] + r[60] <= 0
 mccormick1[61]: - u[61] + r[61] <= 0
 mccormick1[62]: - u[62] + r[62] <= 0
 mccormick1[63]: - u[63] + r[63] <= 0
 mccormick1[64]: - u[64] + r[64] <= 0
 mccormick1[65]: - u[65] + r[65] <= 0
 mccormick1[66]: - u[66] + r[66] <= 0
 mccormick1[67]: - u[67] + r[67] <= 0
 mccormick1[68]: - u[68] + r[68] <= 0
 mccormick1[69]: - u[69] + r[69] <= 0
 mccormick1[70]: - u[70] + r[70] <= 0
 mccormick1[71]: - u[71] + r[71] <= 0
 mccormick1[72]: - u[72] + r[72] <= 0
 mccormick1[73]: - u[73] + r[73] <= 0
 mccormick1[74]: - u[74] + r[74] <= 0
 mccormick1[75]: - u[75] + r[75] <= 0
 mccormick1[76]: - u[76] + r[76] <= 0
 mccormick1[77]: - u[77] + r[77] <= 0
 mccormick1[78]: - u[78] + r[78] <= 0
 mccormick1[79]: - u[79] + r[79] <= 0
 mccormick1[80]: - u[80] + r[80] <= 0
 mccormick1[81]: - u[81] + r[81] <= 0
 mccormick1[82]: - u[82] + r[82] <= 0
 mccormick1[83]: - u[83] + r[83] <= 0
 mccormick1[84]: - u[84] + r[84] <= 0
 mccormick1[85]: - u[85] + r[85] <= 0
 mccormick1[86]: - u[86] + r[86] <= 0
 mccormick1[87]: - u[87] + r[87] <= 0
 mccormick1[88]: - u[88] + r[88] <= 0
 mccormick1[89]: - u[89] + r[89] <= 0
 mccormick1[90]: - u[90] + r[90] <= 0
 mccormick1[91]: - u[91] + r[91] <= 0
 mccormick1[92]: - u[92] + r[92] <= 0
 mccormick1[93]: - u[93] + r[93] <= 0
 mccormick1[94]: - u[94] + r[94] <= 0
 mccormick1[95]: - u[95] + r[95] <= 0
 mccormick1[96]: - u[96] + r[96] <= 0
 mccormick1[97]: - u[97] + r[97] <= 0
 mccormick1[98]: - u[98] + r[98] <= 0
 mccormick1[99]: - u[99] + r[99] <= 0
 mccormick2[0]: - x[0] + r[0] <= 0
 mccormick2[1]: - x[1] + r[1] <= 0
 mccormick2[2]: - x[2] + r[2] <= 0
 mccormick2[3]: - x[3] + r[3] <= 0
 mccormick2[4]: - x[4] + r[4] <= 0
 mccormick2[5]: - x[5] + r[5] <= 0
 mccormick2[6]: - x[6] + r[6] <= 0
 mccormick2[7]: - x[7] + r[7] <= 0
 mccormick2[8]: - x[8] + r[8] <= 0
 mccormick2[9]: - x[9] + r[9] <= 0
 mccormick2[10]: - x[10] + r[10] <= 0
 mccormick2[11]: - x[11] + r[11] <= 0
 mccormick2[12]: - x[12] + r[12] <= 0
 mccormick2[13]: - x[13] + r[13] <= 0
 mccormick2[14]: - x[14] + r[14] <= 0
 mccormick2[15]: - x[15] + r[15] <= 0
 mccormick2[16]: - x[16] + r[16] <= 0
 mccormick2[17]: - x[17] + r[17] <= 0
 mccormick2[18]: - x[18] + r[18] <= 0
 mccormick2[19]: - x[19] + r[19] <= 0
 mccormick2[20]: - x[20] + r[20] <= 0
 mccormick2[21]: - x[21] + r[21] <= 0
 mccormick2[22]: - x[22] + r[22] <= 0
 mccormick2[23]: - x[23] + r[23] <= 0
 mccormick2[24]: - x[24] + r[24] <= 0
 mccormick2[25]: - x[25] + r[25] <= 0
 mccormick2[26]: - x[26] + r[26] <= 0
 mccormick2[27]: - x[27] + r[27] <= 0
 mccormick2[28]: - x[28] + r[28] <= 0
 mccormick2[29]: - x[29] + r[29] <= 0
 mccormick2[30]: - x[30] + r[30] <= 0
 mccormick2[31]: - x[31] + r[31] <= 0
 mccormick2[32]: - x[32] + r[32] <= 0
 mccormick2[33]: - x[33] + r[33] <= 0
 mccormick2[34]: - x[34] + r[34] <= 0
 mccormick2[35]: - x[35] + r[35] <= 0
 mccormick2[36]: - x[36] + r[36] <= 0
 mccormick2[37]: - x[37] + r[37] <= 0
 mccormick2[38]: - x[38] + r[38] <= 0
 mccormick2[39]: - x[39] + r[39] <= 0
 mccormick2[40]: - x[40] + r[40] <= 0
 mccormick2[41]: - x[41] + r[41] <= 0
 mccormick2[42]: - x[42] + r[42] <= 0
 mccormick2[43]: - x[43] + r[43] <= 0
 mccormick2[44]: - x[44] + r[44] <= 0
 mccormick2[45]: - x[45] + r[45] <= 0
 mccormick2[46]: - x[46] + r[46] <= 0
 mccormick2[47]: - x[47] + r[47] <= 0
 mccormick2[48]: - x[48] + r[48] <= 0
 mccormick2[49]: - x[49] + r[49] <= 0
 mccormick2[50]: - x[50] + r[50] <= 0
 mccormick2[51]: - x[51] + r[51] <= 0
 mccormick2[52]: - x[52] + r[52] <= 0
 mccormick2[53]: - x[53] + r[53] <= 0
 mccormick2[54]: - x[54] + r[54] <= 0
 mccormick2[55]: - x[55] + r[55] <= 0
 mccormick2[56]: - x[56] + r[56] <= 0
 mccormick2[57]: - x[57] + r[57] <= 0
 mccormick2[58]: - x[58] + r[58] <= 0
 mccormick2[59]: - x[59] + r[59] <= 0
 mccormick2[60]: - x[60] + r[60] <= 0
 mccormick2[61]: - x[61] + r[61] <= 0
 mccormick2[62]: - x[62] + r[62] <= 0
 mccormick2[63]: - x[63] + r[63] <= 0
 mccormick2[64]: - x[64] + r[64] <= 0
 mccormick2[65]: - x[65] + r[65] <= 0
 mccormick2[66]: - x[66] + r[66] <= 0
 mccormick2[67]: - x[67] + r[67] <= 0
 mccormick2[68]: - x[68] + r[68] <= 0
 mccormick2[69]: - x[69] + r[69] <= 0
 mccormick2[70]: - x[70] + r[70] <= 0
 mccormick2[71]: - x[71] + r[71] <= 0
 mccormick2[72]: - x[72] + r[72] <= 0
 mccormick2[73]: - x[73] + r[73] <= 0
 mccormick2[74]: - x[74] + r[74] <= 0
 mccormick2[75]: - x[75] + r[75] <= 0
 mccormick2[76]: - x[76] + r[76] <= 0
 mccormick2[77]: - x[77] + r[77] <= 0
 mccormick2[78]: - x[78] + r[78] <= 0
 mccormick2[79]: - x[79] + r[79] <= 0
 mccormick2[80]: - x[80] + r[80] <= 0
 mccormick2[81]: - x[81] + r[81] <= 0
 mccormick2[82]: - x[82] + r[82] <= 0
 mccormick2[83]: - x[83] + r[83] <= 0
 mccormick2[84]: - x[84] + r[84] <= 0
 mccormick2[85]: - x[85] + r[85] <= 0
 mccormick2[86]: - x[86] + r[86] <= 0
 mccormick2[87]: - x[87] + r[87] <= 0
 mccormick2[88]: - x[88] + r[88] <= 0
 mccormick2[89]: - x[89] + r[89] <= 0
 mccormick2[90]: - x[90] + r[90] <= 0
 mccormick2[91]: - x[91] + r[91] <= 0
 mccormick2[92]: - x[92] + r[92] <= 0
 mccormick2[93]: - x[93] + r[93] <= 0
 mccormick2[94]: - x[94] + r[94] <= 0
 mccormick2[95]: - x[95] + r[95] <= 0
 mccormick2[96]: - x[96] + r[96] <= 0
 mccormick2[97]: - x[97] + r[97] <= 0
 mccormick2[98]: - x[98] + r[98] <= 0
 mccormick2[99]: - x[99] + r[99] <= 0
 mccormick3[0]: x[0] + u[0] - r[0] <= 1
 mccormick3[1]: x[1] + u[1] - r[1] <= 1
 mccormick3[2]: x[2] + u[2] - r[2] <= 1
 mccormick3[3]: x[3] + u[3] - r[3] <= 1
 mccormick3[4]: x[4] + u[4] - r[4] <= 1
 mccormick3[5]: x[5] + u[5] - r[5] <= 1
 mccormick3[6]: x[6] + u[6] - r[6] <= 1
 mccormick3[7]: x[7] + u[7] - r[7] <= 1
 mccormick3[8]: x[8] + u[8] - r[8] <= 1
 mccormick3[9]: x[9] + u[9] - r[9] <= 1
 mccormick3[10]: x[10] + u[10] - r[10] <= 1
 mccormick3[11]: x[11] + u[11] - r[11] <= 1
 mccormick3[12]: x[12] + u[12] - r[12] <= 1
 mccormick3[13]: x[13] + u[13] - r[13] <= 1
 mccormick3[14]: x[14] + u[14] - r[14] <= 1
 mccormick3[15]: x[15] + u[15] - r[15] <= 1
 mccormick3[16]: x[16] + u[16] - r[16] <= 1
 mccormick3[17]: x[17] + u[17] - r[17] <= 1
 mccormick3[18]: x[18] + u[18] - r[18] <= 1
 mccormick3[19]: x[19] + u[19] - r[19] <= 1
 mccormick3[20]: x[20] + u[20] - r[20] <= 1
 mccormick3[21]: x[21] + u[21] - r[21] <= 1
 mccormick3[22]: x[22] + u[22] - r[22] <= 1
 mccormick3[23]: x[23] + u[23] - r[23] <= 1
 mccormick3[24]: x[24] + u[24] - r[24] <= 1
 mccormick3[25]: x[25] + u[25] - r[25] <= 1
 mccormick3[26]: x[26] + u[26] - r[26] <= 1
 mccormick3[27]: x[27] + u[27] - r[27] <= 1
 mccormick3[28]: x[28] + u[28] - r[28] <= 1
 mccormick3[29]: x[29] + u[29] - r[29] <= 1
 mccormick3[30]: x[30] + u[30] - r[30] <= 1
 mccormick3[31]: x[31] + u[31] - r[31] <= 1
 mccormick3[32]: x[32] + u[32] - r[32] <= 1
 mccormick3[33]: x[33] + u[33] - r[33] <= 1
 mccormick3[34]: x[34] + u[34] - r[34] <= 1
 mccormick3[35]: x[35] + u[35] - r[35] <= 1
 mccormick3[36]: x[36] + u[36] - r[36] <= 1
 mccormick3[37]: x[37] + u[37] - r[37] <= 1
 mccormick3[38]: x[38] + u[38] - r[38] <= 1
 mccormick3[39]: x[39] + u[39] - r[39] <= 1
 mccormick3[40]: x[40] + u[40] - r[40] <= 1
 mccormick3[41]: x[41] + u[41] - r[41] <= 1
 mccormick3[42]: x[42] + u[42] - r[42] <= 1
 mccormick3[43]: x[43] + u[43] - r[43] <= 1
 mccormick3[44]: x[44] + u[44] - r[44] <= 1
 mccormick3[45]: x[45] + u[45] - r[45] <= 1
 mccormick3[46]: x[46] + u[46] - r[46] <= 1
 mccormick3[47]: x[47] + u[47] - r[47] <= 1
 mccormick3[48]: x[48] + u[48] - r[48] <= 1
 mccormick3[49]: x[49] + u[49] - r[49] <= 1
 mccormick3[50]: x[50] + u[50] - r[50] <= 1
 mccormick3[51]: x[51] + u[51] - r[51] <= 1
 mccormick3[52]: x[52] + u[52] - r[52] <= 1
 mccormick3[53]: x[53] + u[53] - r[53] <= 1
 mccormick3[54]: x[54] + u[54] - r[54] <= 1
 mccormick3[55]: x[55] + u[55] - r[55] <= 1
 mccormick3[56]: x[56] + u[56] - r[56] <= 1
 mccormick3[57]: x[57] + u[57] - r[57] <= 1
 mccormick3[58]: x[58] + u[58] - r[58] <= 1
 mccormick3[59]: x[59] + u[59] - r[59] <= 1
 mccormick3[60]: x[60] + u[60] - r[60] <= 1
 mccormick3[61]: x[61] + u[61] - r[61] <= 1
 mccormick3[62]: x[62] + u[62] - r[62] <= 1
 mccormick3[63]: x[63] + u[63] - r[63] <= 1
 mccormick3[64]: x[64] + u[64] - r[64] <= 1
 mccormick3[65]: x[65] + u[65] - r[65] <= 1
 mccormick3[66]: x[66] + u[66] - r[66] <= 1
 mccormick3[67]: x[67] + u[67] - r[67] <= 1
 mccormick3[68]: x[68] + u[68] - r[68] <= 1
 mccormick3[69]: x[69] + u[69] - r[69] <= 1
 mccormick3[70]: x[70] + u[70] - r[70] <= 1
 mccormick3[71]: x[71] + u[71] - r[71] <= 1
 mccormick3[72]: x[72] + u[72] - r[72] <= 1
 mccormick3[73]: x[73] + u[73] - r[73] <= 1
 mccormick3[74]: x[74] + u[74] - r[74] <= 1
 mccormick3[75]: x[75] + u[75] - r[75] <= 1
 mccormick3[76]: x[76] + u[76] - r[76] <= 1
 mccormick3[77]: x[77] + u[77] - r[77] <= 1
 mccormick3[78]: x[78] + u[78] - r[78] <= 1
 mccormick3[79]: x[79] + u[79] - r[79] <= 1
 mccormick3[80]: x[80] + u[80] - r[80] <= 1
 mccormick3[81]: x[81] + u[81] - r[81] <= 1
 mccormick3[82]: x[82] + u[82] - r[82] <= 1
 mccormick3[83]: x[83] + u[83] - r[83] <= 1
 mccormick3[84]: x[84] + u[84] - r[84] <= 1
 mccormick3[85]: x[85] + u[85] - r[85] <= 1
 mccormick3[86]: x[86] + u[86] - r[86] <= 1
 mccormick3[87]: x[87] + u[87] - r[87] <= 1
 mccormick3[88]: x[88] + u[88] - r[88] <= 1
 mccormick3[89]: x[89] + u[89] - r[89] <= 1
 mccormick3[90]: x[90] + u[90] - r[90] <= 1
 mccormick3[91]: x[91] + u[91] - r[91] <= 1
 mccormick3[92]: x[92] + u[92] - r[92] <= 1
 mccormick3[93]: x[93] + u[93] - r[93] <= 1
 mccormick3[94]: x[94] + u[94] - r[94] <= 1
 mccormick3[95]: x[95] + u[95] - r[95] <= 1
 mccormick3[96]: x[96] + u[96] - r[96] <= 1
 mccormick3[97]: x[97] + u[97] - r[97] <= 1
 mccormick3[98]: x[98] + u[98] - r[98] <= 1
 mccormick3[99]: x[99] + u[99] - r[99] <= 1
Bounds
Binaries
 x[0] x[1] x[2] x[3] x[4] x[5] x[6] x[7] x[8] x[9] x[10] x[11] x[12] x[13]
 x[14] x[15] x[16] x[17] x[18] x[19] x[20] x[21] x[22] x[23] x[24] x[25]
 x[26] x[27] x[28] x[29] x[30] x[31] x[32] x[33] x[34] x[35] x[36] x[37]
 x[38] x[39] x[40] x[41] x[42] x[43] x[44] x[45] x[46] x[47] x[48] x[49]
 x[50] x[51] x[52] x[53] x[54] x[55] x[56] x[57] x[58] x[59] x[60] x[61]
 x[62] x[63] x[64] x[65] x[66] x[67] x[68] x[69] x[70] x[71] x[72] x[73]
 x[74] x[75] x[76] x[77] x[78] x[79] x[80] x[81] x[82] x[83] x[84] x[85]
 x[86] x[87] x[88] x[89] x[90] x[91] x[92] x[93] x[94] x[95] x[96] x[97]
 x[98] x[99] u[0] u[1] u[2] u[3] u[4] u[5] u[6] u[7] u[8] u[9] u[10] u[11]
 u[12] u[13] u[14] u[15] u[16] u[17] u[18] u[19] u[20] u[21] u[22] u[23]
 u[24] u[25] u[26] u[27] u[28] u[29] u[30] u[31] u[32] u[33] u[34] u[35]
 u[36] u[37] u[38] u[39] u[40] u[41] u[42] u[43] u[44] u[45] u[46] u[47]
 u[48] u[49] u[50] u[51] u[52] u[53] u[54] u[55] u[56] u[57] u[58] u[59]
 u[60] u[61] u[62] u[63] u[64] u[65] u[66] u[67] u[68] u[69] u[70] u[71]
 u[72] u[73] u[74] u[75] u[76] u[77] u[78] u[79] u[80] u[81] u[82] u[83]
 u[84] u[85] u[86] u[87] u[88] u[89] u[90] u[91] u[92] u[93] u[94] u[95]
 u[96] u[97] u[98] u[99] r[0] r[1] r[2] r[3] r[4] r[5] r[6] r[7] r[8] r[9]
 r[10] r[11] r[12] r[13] r[14] r[15] r[16] r[17] r[18] r[19] r[20] r[21]
 r[22] r[23] r[24] r[25] r[26] r[27] r[28] r[29] r[30] r[31] r[32] r[33]
 r[34] r[35] r[36] r[37] r[38] r[39] r[40] r[41] r[42] r[43] r[44] r[45]
 r[46] r[47] r[48] r[49] r[50] r[51] r[52] r[53] r[54] r[55] r[56] r[57]
 r[58] r[59] r[60] r[61] r[62] r[63] r[64] r[65] r[66] r[67] r[68] r[69]
 r[70] r[71] r[72] r[73] r[74] r[75] r[76] r[77] r[78] r[79] r[80] r[81]
 r[82] r[83] r[84] r[85] r[86] r[87] r[88] r[89] r[90] r[91] r[92] r[93]
 r[94] r[95] r[96] r[97] r[98] r[99]
End
