instances/knapsack/discrete/knapsack_100_3.kp
99719
100
465

64 6.4 85
49 4.9 13
3 0.3 83
68 6.8 91
1 0.1 4
58 5.8 4
70 7.0 48
48 4.8 34
70 7.0 69
99 9.9 97
20 2.0 70
16 1.6 54
29 2.9 78
33 3.3 77
53 5.3 42
17 1.7 99
30 3.0 65
85 8.5 1
94 9.4 85
11 1.1 76
50 5.0 16
40 4.0 6
25 2.5 59
71 7.1 27
37 3.7 8
53 5.3 85
79 7.9 23
12 1.2 2
70 7.0 17
44 4.4 55
30 3.0 48
72 7.2 59
92 9.2 87
42 4.2 74
41 4.1 90
10 1.0 48
17 1.7 68
33 3.3 86
53 5.3 97
55 5.5 2
16 1.6 43
42 4.2 48
35 3.5 72
70 7.0 46
100 10.0 29
43 4.3 22
2 0.2 55
42 4.2 7
68 6.8 67
9 0.9 60
51 5.1 66
5 0.5 61
50 5.0 90
29 2.9 72
57 5.7 83
76 7.6 45
90 9.0 25
83 8.3 7
77 7.7 99
59 5.9 90
37 3.7 87
7 0.7 29
68 6.8 76
55 5.5 72
68 6.8 25
81 8.1 88
93 9.3 16
15 1.5 4
93 9.3 7
2 0.2 28
14 1.4 12
70 7.0 62
95 9.5 20
4 0.4 64
72 7.2 33
25 2.5 77
11 1.1 81
36 3.6 12
57 5.7 79
11 1.1 38
74 7.4 10
34 3.4 81
79 7.9 88
74 7.4 57
82 8.2 56
78 7.8 79
4 0.4 81
77 7.7 94
83 8.3 71
12 1.2 13
25 2.5 69
49 4.9 72
85 8.5 64
56 5.6 99
13 1.3 31
70 7.0 49
18 1.8 80
33 3.3 39
97 9.7 23
85 8.5 11

40610
441

[0.7020667591579234 0.6777327615111921 2.0637118871965083 0.28739777881371076 0.8011264120019208 3.3086540848733694 1.8763037835605083 3.9747001320112716 1.6972182503565014 3.7364154190144196 3.9893876944623132 2.317236575505508 2.8268620562617146 0.7125897963609777 1.1762425125077456 4.074688997269024 1.006049464291884 2.4507986073866035 4.388877056336984 1.532166909068589 3.101456277920242 2.3001925027858725 2.568089206555666 0.5965009139721259 0.3964908229582585 3.273664666845454 2.2710716703482934 0.08192654191452667 3.2083390551739237 3.8881017728201517 3.276768958562008 4.40669121926672 0.5600762533482816 3.1231633491276067 1.8032927742197682 2.6863824566796657 2.9125813914213854 0.9471292798443042 2.3545490478907425 3.9963872173004353 4.408437940200067 0.2458820557406396 2.6824602976745466 2.2802147948418683 1.168252027684392 0.31022964904366856 1.2721677534695717 3.3270944671939215 2.479972715217795 0.8753233002220849 0.9611181082230427 0.600758267802781 1.4300053303417228 3.6957165294933847 3.473816941491683 3.0355996251435116 0.7690333136245243 3.0544542325775215 3.652757489016397 1.3476944478319606 0.4990610852764962 1.3094085809595322 1.1336530448990698 2.054715593032341 3.8239504887045266 1.305271455755772 1.5380005683714415 1.7279665247684923 1.3834364257610305 3.3569161702911505 1.6001248089434787 3.313700479539167 1.8062817094943644 4.332345151732397 2.3721580119634273 3.054245953231871 1.5733635821928276 3.567279613444861 0.012119916186394809 2.7760754805724552 3.335081193763224 1.6419017933895297 3.6358867317799812 2.659391149906527 0.8002711433380297 0.7256810382123186 1.1887251701496517 1.8269913374635862 1.4961755908247623 0.31551788519514895 1.0753451035835186 3.1864251660526905 2.0895077217090354 1.5179840660133683 0.6940946977332065 2.0821491353880757 2.956854553643916 3.4559362505786733 3.8599024545356637 2.9234139465807307]

[48 92 42 3 72 82 69 64 81 10 8 95 28 60 25 25 41 20 9 54 13 28 16 75 85 64 30 12 90 75 34 8 28 21 72 45 44 17 48 43 27 2 58 26 7 19 82 6 79 96 79 52 41 84 61 32 29 95 76 18 89 7 68 51 28 48 85 95 72 98 42 62 2 11 20 53 47 75 89 27 86 2 75 10 26 54 76 36 22 63 85 21 9 4 24 29 85 17 68 32]
